
Log started (V12.10.0.0) Fri Apr  9 00:26:22 2021


Problem 'asset.lp' read.
Read time = 0.01 sec. (0.17 ticks)
New value for default parallel thread count: 1
New value for time limit in seconds: 200
Version identifier: 12.10.0.0 | 2019-11-26 | 843d4de
CPXPARAM_Threads                                 1
CPXPARAM_TimeLimit                               200
Found incumbent of value -0.880438 after 0.00 sec. (0.08 ticks)
Tried aggregator 3 times.
MIP Presolve eliminated 304 rows and 171 columns.
MIP Presolve modified 1435 coefficients.
Aggregator did 571 substitutions.
Reduced MIP has 733 rows, 766 columns, and 3441 nonzeros.
Reduced MIP has 684 binaries, 47 generals, 0 SOSs, and 0 indicators.
Presolve time = 0.01 sec. (7.55 ticks)
Probing fixed 202 vars, tightened 21 bounds.
Probing time = 0.01 sec. (3.06 ticks)
Cover probing fixed 0 vars, tightened 140 bounds.
Tried aggregator 2 times.
MIP Presolve eliminated 260 rows and 249 columns.
MIP Presolve modified 78 coefficients.
Aggregator did 1 substitutions.
Reduced MIP has 472 rows, 507 columns, and 1993 nonzeros.
Reduced MIP has 455 binaries, 17 generals, 0 SOSs, and 0 indicators.
Presolve time = 0.00 sec. (3.60 ticks)
Probing time = 0.00 sec. (1.81 ticks)
Tried aggregator 1 time.
Detecting symmetries...
MIP Presolve modified 70 coefficients.
Reduced MIP has 472 rows, 507 columns, and 1993 nonzeros.
Reduced MIP has 455 binaries, 17 generals, 0 SOSs, and 0 indicators.
Presolve time = 0.00 sec. (1.40 ticks)
Probing time = 0.00 sec. (1.79 ticks)
Clique table members: 1414.
MIP emphasis: balance optimality and feasibility.
MIP search method: dynamic search.
Parallel mode: none, using 1 thread.
Root relaxation solution time = 0.01 sec. (6.65 ticks)

        Nodes                                         Cuts/
   Node  Left     Objective  IInf  Best Integer    Best Bound    ItCnt     Gap

*     0+    0                           -0.8804      366.9596              --- 
      0     0      290.5646   154       -0.8804      290.5646      424     --- 
*     0+    0                          146.4807      290.5646            98.36%
      0     0      286.8048   154      146.4807     Cuts: 218      648   95.80%
      0     0      286.7631   154      146.4807     Cuts: 218      786   95.77%
      0     0      286.7145   154      146.4807     Cuts: 175      917   95.74%
      0     0      286.7050   154      146.4807      Cuts: 88     1004   95.73%
*     0+    0                          147.3626      286.7050            94.56%
      0     0      286.6462   154      147.3626      Cuts: 74     1077   94.52%
Detecting symmetries...
      0     0      286.5147   154      147.3626      Cuts: 67     1172   94.43%
*     0+    0                          153.7742      286.5147            86.32%
      0     0      286.4825   154      153.7742     Cuts: 120     1243   86.30%
      0     0      286.4392   154      153.7742      Cuts: 63     1307   86.27%
*     0+    0                          183.0906      286.4392            56.45%
      0     0      286.4332   154      183.0906      Cuts: 67     1357   56.44%
Detecting symmetries...
      0     2      286.4332   162      183.0906      286.4303     1357   56.44%
Elapsed time = 0.20 sec. (199.56 ticks, tree = 0.01 MB, solutions = 4)
*   100+   90                          183.0908      286.1223            56.27%
    100    92      268.5581    96      183.0908      286.1223     8118   56.27%
*   250+  219                          189.7965      285.9141            50.64%
    316   283      270.5066   122      189.7965      285.9127    15302   50.64%
*   350+  315                          189.7981      285.9127            50.64%
*   466   373      integral     0      202.5419      285.9123    20188   41.16%
    543   447      281.3271   137      202.5419      285.9121    22834   41.16%

Performing restart 1

Repeating presolve.
Tried aggregator 2 times.
MIP Presolve modified 305 coefficients.
Aggregator did 2 substitutions.
Reduced MIP has 470 rows, 505 columns, and 1758 nonzeros.
Reduced MIP has 453 binaries, 17 generals, 0 SOSs, and 0 indicators.
Presolve time = 0.00 sec. (2.15 ticks)
Tried aggregator 1 time.
Reduced MIP has 470 rows, 505 columns, and 1758 nonzeros.
Reduced MIP has 453 binaries, 17 generals, 0 SOSs, and 0 indicators.
Presolve time = 0.00 sec. (1.33 ticks)
Represolve time = 0.01 sec. (8.97 ticks)
    576     0      256.6654   147      202.5419     Cuts: 217    25336   26.72%
    576     0      243.2098   147      202.5419     Cuts: 169    25497   20.08%
    576     0      240.4948   147      202.5419     Cuts: 106    25578   18.74%
    576     0      237.5795   147      202.5419     Cuts: 122    25663   17.30%
    576     0      235.4642   147      202.5419     Cuts: 109    25792   16.25%
    576     0      234.7529   147      202.5419     Cuts: 116    25890   15.90%
    576     0      234.5725   147      202.5419      Cuts: 67    25981   15.81%
    576     0      234.1963   147      202.5419      Cuts: 52    26051   15.63%
    576     0      233.8507   147      202.5419      Cuts: 67    26129   15.46%
    576     0      233.5369   147      202.5419      Cuts: 65    26201   15.30%
    576     0      233.4669   147      202.5419      Cuts: 23    26246   15.27%
    576     0      233.3811   147      202.5419      Cuts: 26    26306   15.23%
    576     0      233.1929   147      202.5419      Cuts: 45    26377   15.13%
    576     0      233.1243   147      202.5419      Cuts: 54    26430   15.10%
    576     0      233.0844   147      202.5419      Cuts: 50    26478   15.08%
    576     0      233.0439   147      202.5419      Cuts: 40    26495   15.06%
    576     0      233.0038   147      202.5419      Cuts: 55    26557   15.04%
    576     0      232.9931   147      202.5419      Cuts: 39    26583   15.03%
*   576+    0                          202.5431      232.9931            15.03%
    576     0        cutoff            202.5431      232.9931    26583   15.03%
    576     0      232.9859   147      202.5431      Cuts: 12    26592   15.03%
    576     0      232.9805   147      202.5431      Cuts: 16    26611   15.03%
    576     0      232.9753   147      202.5431       Cuts: 9    26626   15.03%
*   576+    0                          207.7774      232.9753            12.13%
*   576+    0                          207.7778      232.9753            12.13%
*   576+    0                          207.7780      232.9753            12.13%
*   576+    0                          215.6990      232.9753             8.01%
    576     0        cutoff            215.6990      232.9753    26626    8.01%
    576     2      232.9753   118      215.6990      232.9724    26626    8.01%
    581     7      231.1862    99      215.6990      231.7711    27098    7.45%
*   586+    8                          217.6575      231.7711             6.48%
    605    21      225.1195    58      217.6575      231.0498    28163    6.15%
*   606+   11                          222.5273      231.0498             3.83%
*   610    15      integral     0      222.5275      231.0498    28207    3.83%
*   656+   15                          222.5288      227.2656             2.13%
    671    17      222.8002    61      222.5288      224.9685    30708    1.10%

GUB cover cuts applied:  8
Clique cuts applied:  101
Cover cuts applied:  4
Implied bound cuts applied:  16
Flow cuts applied:  3
Mixed integer rounding cuts applied:  24
Zero-half cuts applied:  39
Lift and project cuts applied:  7
Gomory fractional cuts applied:  6

Root node processing (before b&c):
  Real time             =    0.20 sec. (199.76 ticks)
Sequential b&c:
  Real time             =    2.16 sec. (2455.19 ticks)
                          ------------
Total (root+branch&cut) =    2.36 sec. (2654.95 ticks)

Solution pool: 18 solutions saved.

MIP - Integer optimal, tolerance (0.0001/1e-06):  Objective =  2.2252875914e+02
Current MIP best bound =  2.2253043377e+02 (gap = 0.00167463, 0.00%)
Solution time =    2.36 sec.  Iterations = 31320  Nodes = 698 (22)
Deterministic time = 2654.96 ticks  (1123.13 ticks/sec)


Incumbent solution
Variable Name           Solution Value
F                           240.000000
f1                            0.911241
f2                           16.560000
y80                           1.000000
y89                           1.000000
y186                          1.000000
y115                          1.000000
y146                          1.000000
y46                           1.000000
y109                          1.000000
y151                          1.000000
y79                           1.000000
y76                           1.000000
y191                          1.000000
y7                            1.000000
y93                           1.000000
s3                            6.000000
s14                           6.000000
s17                           6.000000
s22                           6.000000
s23                           6.000000
s60                           6.000000
s67                           6.000000
s77                           6.000000
s80                           6.466692
s81                           6.000000
s89                           6.879901
s101                          6.000000
s155                          6.000000
s164                          6.000000
s170                          6.000000
s186                          6.742611
s105                          6.010000
s29                           6.020000
s115                          7.007262
s52                           6.130000
s100                          6.450000
s146                          7.322909
s180                          6.500000
s161                          6.530000
s176                          6.540000
s46                           7.131997
s109                          6.688556
s151                          7.345164
s79                           6.620000
s59                           6.720000
s11                           6.760000
s76                           7.773793
s191                          7.693334
s7                            7.782780
s104                          6.870000
s93                           7.370313
s72                           6.940000
s86                           6.950000
x118x80x1                     1.000000
x69x109x1                     1.000000
x185x79x1                     1.000000
x58x151x1                     1.000000
x74x186x1                     1.000000
x2x93x1                       1.000000
x139x186x1                    1.000000
x185x79x2                     1.000000
x58x146x2                     1.000000
x74x89x2                      1.000000
x43x115x2                     1.000000
x43x146x2                     1.000000
x139x46x2                     1.000000
x124x115x2                    1.000000
x118x80x3                     1.000000
x69x109x3                     1.000000
x2x93x3                       1.000000
x160x89x3                     1.000000
x160x46x3                     1.000000
x124x151x3                    1.000000
x80x7x1                       1.000000
x80x76x3                      1.000000
x89x0x2                       1.000000
x89x0x3                       1.000000
x186x0x1                      2.000000
x115x0x2                      2.000000
x146x0x2                      2.000000
x46x0x2                       1.000000
x46x0x3                       1.000000
x109x7x1                      1.000000
x109x76x3                     1.000000
x151x0x1                      1.000000
x151x0x3                      1.000000
x79x191x1                     1.000000
x79x191x2                     1.000000
x76x0x3                       2.000000
x191x0x1                      1.000000
x191x0x2                      1.000000
x7x0x1                        2.000000
x93x0x1                       1.000000
x93x0x3                       1.000000
s118                          4.839499
z118z80z1                     1.000000
z118z80z3                     1.000000
z118z76z3                     1.000000
z118z7z1                      1.000000
z118z72z3                     1.000000
z118z86z1                     1.000000
s69                           5.209162
z69z109z1                     1.000000
z69z109z3                     1.000000
z69z76z3                      1.000000
z69z7z1                       1.000000
z69z72z3                      1.000000
z69z86z1                      1.000000
s185                          4.955576
z185z79z1                     1.000000
z185z79z2                     1.000000
z185z7z1                      1.000000
z185z104z2                    1.000000
z185z86z1                     1.000000
s58                           5.455654
z58z146z2                     1.000000
z58z151z1                     1.000000
s74                           5.252995
z74z89z2                      1.000000
z74z186z1                     1.000000
s2                            5.499496
z2z93z1                       1.000000
z2z93z3                       1.000000
s43                           5.315536
z43z115z2                     1.000000
z43z146z2                     1.000000
s160                          5.274488
z160z89z3                     1.000000
z160z46z3                     1.000000
s139                          5.261883
z139z186z1                    1.000000
z139z46z2                     1.000000
s124                          5.334482
z124z115z2                    1.000000
z124z151z3                    1.000000
z80z76z3                      1.000000
z80z7z1                       1.000000
z109z76z3                     1.000000
z109z7z1                      1.000000
z79z191z1                     1.000000
z79z191z2                     1.000000
All other variables in the range 1-1511 are 0.
